50
150
99
99
97
97
96
92
90
88
87
87
87
86
86
85
85
83
81
79
78
77
77
74
73
73
73
72
68
65
62
58
56
55
55
55
52
52
51
50
49
46
42
40
39
38
37
36
36
33
31
31
